%
% Problem instance for Monorail
% 
% From
% Glenn Iba's Grand Tour page
% http://glenniba.com/grandtourhexbranch/grandtour.html
%
%
% Used by the MiniZinc model http://www.hakank.org/minizinc/monorail.mzn
%
rows = 6;
cols = 6;
num_given = 7;

given = array2d(1..num_given, 1..2,
   [
     9,10,
     9,15,
     11,12,
     20,26,
     22,23,
     22,28,
     28,29
    ]);
